(set-info :smt-lib-version 2.6)
(set-logic QF_LIA)
(set-info :category "industrial")
(set-info :status sat)
(declare-fun x0 () Int)
(declare-fun x1 () Int)
(declare-fun x10 () Int)
(declare-fun x11 () Int)
(declare-fun x12 () Int)
(declare-fun x13 () Int)
(declare-fun x14 () Int)
(declare-fun x15 () Int)
(declare-fun x16 () Int)
(declare-fun x17 () Int)
(declare-fun x18 () Int)
(declare-fun x19 () Int)
(declare-fun x2 () Int)
(declare-fun x20 () Int)
(declare-fun x21 () Int)
(declare-fun x22 () Int)
(declare-fun x23 () Int)
(declare-fun x24 () Int)
(declare-fun x25 () Int)
(declare-fun x26 () Int)
(declare-fun x27 () Int)
(declare-fun x28 () Int)
(declare-fun x29 () Int)
(declare-fun x3 () Int)
(declare-fun x30 () Int)
(declare-fun x31 () Int)
(declare-fun x32 () Int)
(declare-fun x33 () Int)
(declare-fun x34 () Int)
(declare-fun x35 () Int)
(declare-fun x36 () Int)
(declare-fun x37 () Int)
(declare-fun x38 () Int)
(declare-fun x39 () Int)
(declare-fun x4 () Int)
(declare-fun x40 () Int)
(declare-fun x41 () Int)
(declare-fun x42 () Int)
(declare-fun x43 () Int)
(declare-fun x44 () Int)
(declare-fun x5 () Int)
(declare-fun x6 () Int)
(declare-fun x7 () Int)
(declare-fun x8 () Int)
(declare-fun x9 () Int)
(assert (let ((?v_16 (* 1 x1)) (?v_6 (* 0 x12)) (?v_35 (* 0 x2)) (?v_60 (* 1 x14)) (?v_72 (* 1 x15)) (?v_106 (* 1 x18)) (?v_10 (* 0 x22)) (?v_1 (* 0 x27)) (?v_52 (* 0 x32)) (?v_11 (* 0 x35)) (?v_80 (* 1 x34)) (?v_12 (* 0 x37)) (?v_92 (* 0 x4)) (?v_55 (* 0 x44)) (?v_43 (* 0 x5)) (?v_45 (* 0 x7)) (?v_58 (* 1 x6)) (?v_3 (* 0 x28)) (?v_90 (* 1 x13)) (?v_118 (* 2 x15)) (?v_7 (* 0 x16)) (?v_18 (* 0 x23)) (?v_38 (* 1 x26)) (?v_21 (* 0 x29)) (?v_27 (* 0 x31)) (?v_28 (* 0 x33)) (?v_36 (* 0 x38)) (?v_37 (* 1 x22)) (?v_81 (* 1 x35)) (?v_56 (* 1 x42)) (?v_30 (* 1 x36)) (?v_59 (* 0 x9)) (?v_128 (* 1 x0)) (?v_15 (* 0 x17)) (?v_89 (* 0 x18)) (?v_22 (* 1 x30)) (?v_158 (* 2 x33)) (?v_115 (* 1 x38)) (?v_31 (* 1 x4)) (?v_44 (* 0 x6)) (?v_114 (* 1 x21)) (?v_33 (* 0 x15)) (?v_61 (* 0 x20)) (?v_29 (* 0 x34)) (?v_102 (* 0 x21)) (?v_66 (* 1 x25)) (?v_54 (* 1 x40)) (?v_41 (* 1 x43)) (?v_57 (* 1 x5)) (?v_88 (* 0 x8)) (?v_127 (* 1 x28)) (?v_71 (* 0 x1)) (?v_32 (* 0 x13)) (?v_96 (* 0 x14)) (?v_34 (* 1 x16)) (?v_156 (* 1 x17)) (?v_143 (* 1 x20)) (?v_63 (* 0 x26)) (?v_68 (* 0 x30)) (?v_83 (* 0 x40)) (?v_131 (* 1 x37)) (?v_42 (* 1 x44)) (?v_87 (* 2 x7)) (?v_47 (* 1 x9)) (?v_49 (* 0 x10)) (?v_50 (* 1 x11)) (?v_78 (* 0 x25)) (?v_75 (* 0 x3)) (?v_76 (* 1 x24)) (?v_79 (* 1 x31)) (?v_116 (* 1 x41)) (?v_108 (* 0 x19)) (?v_62 (* 0 x24)) (?v_137 (* 2 x26)) (?v_103 (* 2 x34)) (?v_70 (* 0 x36)) (?v_82 (* 0 x39)) (?v_65 (* 0 x41))) (let ((?v_94 (+ ?v_58 ?v_59)) (?v_85 (* 1 x10)) (?v_126 (* 2 x42)) (?v_121 (* 1 x39)) (?v_125 (* 1 x7)) (?v_91 (* 1 x2)) (?v_122 (* 1 x23)) (?v_86 (* 1 x3)) (?v_84 (* 0 x43)) (?v_144 (* 1 x33)) (?v_133 (+ ?v_57 ?v_59)) (?v_138 (* 1 x32)) (?v_93 (* 0 x42)) (?v_99 (* 0 x0)) (?v_120 (* 1 x29)) (?v_104 (+ ?v_88 ?v_59)) (?v_124 (* 0 x11)) (?v_117 (* 1 x12)) (?v_146 (* 2 x11)) (?v_145 (* 2 x17)) (?v_141 (* 1 x8)) (?v_130 (* 2 x30)) (?v_149 (* 2 x24)) (?v_148 (+ ?v_42 (+ ?v_57 ?v_47))) (?v_150 (* 1 x19))) (let ((?v_151 (+ ?v_141 ?v_59)) (?v_154 (* 2 x36)) (?v_152 (* 2 x16)) (?v_157 (* 2 x39)) (?v_14 (* (- 1) x0)) (?v_4 (* (- 2) x11)) (?v_17 (* (- 1) x24)) (?v_2 (* (- 1) x30)) (?v_39 (* (- 1) x36)) (?v_0 (* (- 1) x41)) (?v_20 (* (- 1) x42)) (?v_23 (* (- 1) x9))) (let ((?v_13 (+ ?v_23 ?v_3)) (?v_5 (* (- 1) x10)) (?v_8 (* (- 1) x19)) (?v_97 (* (- 1) x20)) (?v_64 (* (- 1) x34)) (?v_69 (* (- 1) x44)) (?v_74 (* (- 1) x6)) (?v_9 (* (- 1) x7)) (?v_46 (* (- 1) x8)) (?v_95 (* (- 1) x1)) (?v_24 (* (- 1) x15)) (?v_111 (* (- 1) x29)) (?v_19 (* (- 1) x3)) (?v_135 (* (- 1) x31)) (?v_25 (* (- 1) x32)) (?v_107 (* (- 1) x26)) (?v_77 (* (- 1) x27)) (?v_51 (* (- 1) x33)) (?v_112 (* (- 1) x37)) (?v_26 (* (- 1) x38)) (?v_53 (* (- 1) x4)) (?v_40 (* (- 1) x39)) (?v_113 (* (- 1) x5)) (?v_48 (* (- 1) x12)) (?v_98 (* (- 1) x23)) (?v_73 (* (- 1) x40))) (let ((?v_139 (+ ?v_46 ?v_47)) (?v_67 (* (- 1) x28)) (?v_134 (* (- 1) x16)) (?v_119 (* (- 1) x25)) (?v_109 (* (- 1) x14)) (?v_105 (* (- 1) x17)) (?v_100 (* (- 1) x35)) (?v_153 (* (- 2) x32)) (?v_110 (* (- 1) x22)) (?v_101 (* (- 1) x43)) (?v_140 (* (- 1) x11)) (?v_123 (* (- 2) x24)) (?v_132 (* (- 1) x13)) (?v_129 (* (- 1) x2)) (?v_136 (* (- 1) x18)) (?v_142 (* (- 1) x21)) (?v_147 (* (- 2) x40)) (?v_155 (* (- 2) x16))) (and (<= (+ ?v_14 (+ ?v_16 (+ ?v_4 (+ (* (- 2) x17) (+ ?v_17 (+ ?v_6 (+ ?v_35 (+ ?v_60 (+ ?v_72 (+ ?v_106 (+ ?v_10 (+ ?v_1 (+ ?v_2 (+ ?v_52 (+ ?v_11 (+ ?v_80 (+ ?v_39 (+ ?v_12 (+ (* (- 3) x39) (+ ?v_0 (+ ?v_20 (+ ?v_92 (+ ?v_55 (+ ?v_43 (+ ?v_45 (+ ?v_58 ?v_13)))))))))))))))))))))))))) 0) (<= (+ ?v_5 (+ ?v_90 (+ ?v_118 (+ ?v_7 (+ ?v_8 (+ ?v_97 (+ ?v_18 (+ ?v_38 (+ ?v_64 (+ ?v_0 (+ ?v_69 (+ ?v_1 (+ ?v_21 (+ ?v_27 (+ ?v_28 (+ ?v_36 (+ ?v_37 (+ ?v_2 (+ ?v_81 (+ ?v_56 (+ ?v_74 (+ ?v_9 (+ ?v_46 (+ ?v_3 (+ ?v_30 ?v_59))))))))))))))))))))))))) 0) (<= (+ ?v_128 (+ ?v_95 (+ ?v_4 (+ ?v_5 (+ ?v_6 (+ ?v_24 (+ ?v_7 (+ ?v_15 (+ ?v_89 (+ ?v_8 (+ ?v_111 (+ ?v_19 (+ ?v_135 (+ ?v_25 (+ ?v_9 (+ ?v_10 (+ ?v_11 (+ ?v_22 (+ ?v_158 (+ ?v_12 (+ ?v_115 (+ ?v_31 (+ ?v_44 (+ ?v_114 ?v_13)))))))))))))))))))))))) (- 1)) (<= (+ ?v_14 (+ ?v_6 (+ ?v_15 (+ ?v_16 (+ ?v_33 (+ ?v_8 (+ ?v_17 (+ ?v_61 (+ ?v_18 (+ ?v_107 (+ ?v_77 (+ ?v_19 (+ ?v_51 (+ ?v_29 (+ ?v_11 (+ ?v_112 (+ ?v_26 (+ ?v_53 (+ ?v_20 (+ ?v_102 (+ ?v_21 (+ ?v_66 (+ ?v_22 (+ ?v_54 (+ ?v_41 (+ ?v_57 (+ ?v_88 (+ ?v_23 ?v_127)))))))))))))))))))))))))))) 1) (<= (+ ?v_71 (+ ?v_6 (+ ?v_32 (+ ?v_96 (+ ?v_24 (+ ?v_34 (+ ?v_156 (+ ?v_8 (+ ?v_143 (+ ?v_63 (+ ?v_25 (+ ?v_26 (+ ?v_21 (+ ?v_68 (+ ?v_27 (+ ?v_28 (+ ?v_29 (+ ?v_11 (+ ?v_83 (+ ?v_30 (+ ?v_131 (+ ?v_40 (+ ?v_113 (+ ?v_31 (+ ?v_42 (+ ?v_87 ?v_47)))))))))))))))))))))))))) 0) (<= (+ ?v_14 (+ ?v_48 (+ (* (- 2) x14) (+ ?v_49 (+ ?v_32 (+ ?v_50 (+ ?v_33 (+ ?v_34 (+ ?v_8 (+ ?v_35 (+ ?v_98 (+ ?v_78 (+ ?v_75 (+ ?v_36 (+ ?v_37 (+ ?v_76 (+ ?v_38 (+ ?v_79 (+ ?v_39 (+ ?v_40 (+ ?v_73 (+ ?v_116 (+ ?v_41 (+ ?v_42 (+ ?v_43 (+ ?v_44 (+ ?v_45 ?v_139))))))))))))))))))))))))))) 0) (<= (+ ?v_14 (+ ?v_48 (+ ?v_49 (+ ?v_50 (+ ?v_7 (+ ?v_108 (+ ?v_18 (+ ?v_62 (+ ?v_137 (+ ?v_67 (+ ?v_51 (+ ?v_21 (+ ?v_52 (+ ?v_11 (+ ?v_103 (+ ?v_53 (+ ?v_70 (+ ?v_46 (+ ?v_82 (+ ?v_65 (+ ?v_45 (+ ?v_54 (+ ?v_55 (+ ?v_56 (+ ?v_41 (+ ?v_57 ?v_94)))))))))))))))))))))))))) 0) (<= (+ ?v_6 (+ ?v_16 (+ ?v_85 (+ ?v_50 (+ ?v_60 (+ (* (- 2) x15) (+ ?v_134 (+ ?v_15 (+ ?v_61 (+ ?v_62 (+ ?v_19 (+ ?v_63 (+ ?v_27 (+ ?v_64 (+ ?v_11 (+ ?v_65 (+ ?v_66 (+ (* 1 x27) (+ ?v_67 (+ ?v_68 (+ ?v_53 (+ ?v_69 (+ ?v_70 (+ ?v_12 (+ ?v_54 (+ ?v_41 (+ ?v_126 (+ ?v_57 (+ ?v_44 (+ ?v_121 ?v_125)))))))))))))))))))))))))))))) 0) (<= (+ ?v_48 (+ ?v_71 (+ ?v_50 (+ ?v_72 (+ ?v_119 (+ ?v_7 (+ ?v_15 (+ ?v_91 (+ ?v_10 (+ ?v_122 (+ ?v_63 (+ ?v_67 (+ ?v_86 (+ ?v_27 (+ ?v_64 (+ ?v_73 (+ ?v_0 (+ ?v_11 (+ ?v_84 (+ ?v_22 (+ ?v_144 (+ ?v_74 (+ ?v_70 (+ ?v_36 ?v_133)))))))))))))))))))))))) 0) (<= (+ ?v_14 (+ ?v_5 (+ ?v_6 (+ ?v_32 (+ ?v_109 (+ ?v_15 (+ ?v_35 (+ ?v_18 (+ ?v_75 (+ ?v_50 (+ ?v_33 (+ ?v_76 (+ ?v_77 (+ ?v_78 (+ ?v_79 (+ ?v_28 (+ ?v_138 (+ ?v_80 (+ ?v_81 (+ (* 2 x22) (+ ?v_67 (+ ?v_39 (+ ?v_12 (+ ?v_53 (+ ?v_69 (+ ?v_82 (+ ?v_83 (+ ?v_93 (+ ?v_84 ?v_59))))))))))))))))))))))))))))) 1) (<= (+ (* (- 3) x13) (+ ?v_99 (+ ?v_71 (+ ?v_4 (+ ?v_6 (+ ?v_85 (+ ?v_33 (+ ?v_35 (+ (* (- 2) x42) (+ ?v_10 (+ ?v_18 (+ ?v_62 (+ ?v_38 (+ ?v_1 (+ ?v_67 (+ ?v_28 (+ ?v_26 (+ ?v_120 (+ ?v_86 (+ ?v_22 (+ ?v_12 (+ ?v_54 (+ ?v_57 (+ ?v_87 ?v_104)))))))))))))))))))))))) 0) (<= (+ ?v_16 (+ ?v_5 (+ ?v_48 (+ ?v_105 (+ ?v_17 (+ ?v_89 (+ ?v_61 (+ ?v_50 (+ ?v_90 (+ ?v_72 (+ ?v_91 (+ ?v_10 (+ ?v_63 (+ ?v_1 (+ ?v_67 (+ ?v_100 (+ ?v_52 (+ ?v_28 (+ ?v_26 (+ ?v_69 (+ ?v_68 (+ ?v_92 (+ ?v_54 (+ ?v_93 (+ ?v_43 (+ ?v_45 ?v_94)))))))))))))))))))))))))) (- 1)) (<= (+ (* 2 x0) (+ ?v_95 (+ ?v_124 (+ ?v_117 (+ ?v_96 (+ ?v_15 (+ ?v_35 (+ ?v_153 (+ (* (- 2) x38) (+ ?v_85 (+ ?v_110 (+ ?v_62 (+ ?v_77 (+ ?v_78 (+ ?v_34 (+ ?v_67 (+ ?v_86 (+ ?v_27 (+ ?v_28 (+ ?v_20 (+ ?v_101 (+ ?v_12 (+ ?v_92 (+ ?v_43 (+ ?v_74 ?v_46))))))))))))))))))))))))) (- 1)) (<= (+ ?v_97 (+ ?v_98 (+ ?v_99 (+ ?v_6 (+ ?v_32 (+ ?v_15 (+ ?v_89 (+ ?v_35 (+ ?v_62 (+ ?v_16 (+ ?v_5 (+ ?v_60 (+ ?v_146 (+ ?v_24 (+ ?v_51 (+ ?v_100 (+ ?v_73 (+ ?v_101 (+ ?v_102 (+ ?v_78 (+ ?v_1 (+ ?v_40 (+ ?v_3 (+ ?v_22 (+ ?v_103 (+ ?v_70 (+ ?v_55 ?v_104))))))))))))))))))))))))))) 0) (<= (+ ?v_14 (+ ?v_71 (+ ?v_140 (+ ?v_48 (+ ?v_90 (+ ?v_105 (+ ?v_35 (+ ?v_97 (+ ?v_17 (+ ?v_106 (+ ?v_98 (+ ?v_107 (+ ?v_108 (+ ?v_21 (+ ?v_86 (+ ?v_27 (+ ?v_52 (+ ?v_28 (+ ?v_66 (+ ?v_81 (+ ?v_12 (+ ?v_36 (+ ?v_30 (+ ?v_40 (+ ?v_46 (+ ?v_3 (+ ?v_83 (+ ?v_65 (+ ?v_42 (+ ?v_43 (+ ?v_45 ?v_59))))))))))))))))))))))))))))))) 0) (<= (+ (* (- 2) x20) (+ ?v_99 (+ ?v_71 (+ ?v_6 (+ ?v_90 (+ ?v_109 (+ ?v_110 (+ ?v_18 (+ ?v_62 (+ ?v_107 (+ ?v_111 (+ ?v_19 (+ ?v_1 (+ ?v_2 (+ ?v_52 (+ ?v_112 (+ ?v_41 (+ ?v_113 (+ ?v_7 (+ ?v_92 (+ ?v_44 (+ ?v_114 (+ ?v_30 (+ ?v_115 (+ ?v_116 (+ ?v_46 ?v_23)))))))))))))))))))))))))) 1) (<= (+ ?v_16 (+ ?v_117 (+ ?v_109 (+ ?v_106 (+ ?v_63 (+ ?v_75 (+ ?v_64 (+ ?v_49 (+ ?v_83 (+ ?v_65 (+ ?v_118 (+ ?v_112 (+ ?v_113 (+ ?v_23 (+ ?v_108 (+ ?v_92 (+ ?v_45 (+ ?v_114 (+ ?v_37 (+ ?v_22 (+ ?v_81 (+ ?v_30 (+ ?v_115 (+ ?v_56 (+ ?v_58 ?v_88))))))))))))))))))))))))) 0) (<= (+ ?v_123 (+ ?v_99 (+ ?v_49 (+ ?v_32 (+ ?v_96 (+ ?v_33 (+ ?v_61 (+ ?v_145 (+ ?v_18 (+ ?v_119 (+ ?v_77 (+ ?v_51 (+ ?v_64 (+ ?v_26 (+ ?v_101 (+ ?v_34 (+ ?v_102 (+ ?v_120 (+ ?v_68 (+ ?v_52 (+ ?v_70 (+ ?v_12 (+ ?v_83 (+ ?v_57 (+ ?v_88 (+ ?v_23 ?v_121)))))))))))))))))))))))))) (- 1)) (<= (+ ?v_132 (+ ?v_99 (+ ?v_71 (+ ?v_109 (+ ?v_19 (+ ?v_73 (+ ?v_33 (+ ?v_77 (+ ?v_108 (+ ?v_102 (+ ?v_62 (+ ?v_122 (+ ?v_38 (+ ?v_3 (+ ?v_21 (+ ?v_27 (+ ?v_29 (+ ?v_11 (+ ?v_12 (+ (* 2 x41) (+ ?v_93 (+ ?v_42 (+ ?v_44 (+ ?v_45 ?v_141)))))))))))))))))))))))) 0) (<= (+ ?v_99 (+ ?v_95 (+ (* (- 3) x11) (+ ?v_123 (+ ?v_109 (+ ?v_129 (+ (* (- 2) x34) (+ ?v_0 (+ ?v_9 (+ ?v_49 (+ ?v_33 (+ ?v_113 (+ ?v_7 (+ ?v_10 (+ ?v_78 (+ ?v_38 (+ ?v_46 (+ ?v_108 (+ ?v_3 (+ ?v_75 (+ ?v_83 (+ ?v_84 (+ ?v_130 (+ (* 2 x35) (+ ?v_12 (+ ?v_44 ?v_47)))))))))))))))))))))))))) 0) (<= (+ ?v_14 (+ ?v_136 (+ ?v_98 (+ ?v_16 (+ ?v_51 (+ ?v_100 (+ ?v_124 (+ ?v_33 (+ ?v_112 (+ ?v_69 (+ ?v_7 (+ ?v_10 (+ ?v_76 (+ ?v_63 (+ ?v_1 (+ ?v_21 (+ ?v_75 (+ ?v_68 (+ ?v_80 (+ ?v_125 (+ ?v_126 (+ ?v_74 (+ ?v_46 (+ ?v_108 (+ ?v_59 ?v_127))))))))))))))))))))))))) 1) (<= (+ ?v_6 (+ ?v_32 (+ ?v_128 (+ ?v_16 (+ ?v_96 (+ ?v_85 (+ ?v_24 (+ ?v_129 (+ ?v_17 (+ ?v_15 (+ ?v_106 (+ ?v_26 (+ ?v_20 (+ ?v_69 (+ ?v_7 (+ ?v_108 (+ ?v_10 (+ ?v_122 (+ ?v_21 (+ (* 2 x3) (+ ?v_28 (+ ?v_80 (+ ?v_81 (+ ?v_130 (+ ?v_92 (+ ?v_65 (+ ?v_84 (+ ?v_43 (+ ?v_30 (+ ?v_131 (+ ?v_54 (+ ?v_125 ?v_88)))))))))))))))))))))))))))))))) 1) (<= (+ ?v_95 (+ ?v_132 (+ ?v_124 (+ ?v_15 (+ ?v_89 (+ ?v_76 (+ ?v_63 (+ ?v_72 (+ ?v_111 (+ ?v_75 (+ ?v_79 (+ ?v_80 (+ ?v_26 (+ ?v_0 (+ ?v_83 (+ ?v_20 (+ ?v_101 (+ ?v_69 (+ ?v_108 (+ ?v_78 (+ ?v_52 (+ ?v_12 (+ ?v_45 (+ ?v_58 (+ ?v_88 (+ ?v_59 ?v_121)))))))))))))))))))))))))) 1) (<= (+ ?v_14 (+ ?v_5 (+ ?v_96 (+ ?v_72 (+ ?v_7 (+ ?v_106 (+ ?v_142 (+ ?v_98 (+ ?v_73 (+ ?v_0 (+ ?v_20 (+ ?v_108 (+ ?v_91 (+ ?v_61 (+ ?v_10 (+ ?v_149 (+ ?v_63 (+ ?v_21 (+ ?v_75 (+ ?v_27 (+ ?v_52 (+ ?v_28 (+ ?v_29 (+ ?v_11 (+ ?v_12 (+ ?v_84 (+ ?v_55 (+ ?v_45 ?v_133)))))))))))))))))))))))))))) 0) (<= (+ ?v_99 (+ ?v_71 (+ ?v_117 (+ ?v_147 (+ ?v_109 (+ ?v_105 (+ ?v_50 (+ ?v_33 (+ ?v_134 (+ ?v_110 (+ ?v_108 (+ ?v_122 (+ ?v_38 (+ (* 2 x25) (+ ?v_67 (+ ?v_75 (+ ?v_135 (+ ?v_51 (+ ?v_100 (+ ?v_68 (+ ?v_70 (+ ?v_12 (+ ?v_55 (+ ?v_43 (+ ?v_58 ?v_104))))))))))))))))))))))))) 0) (<= (+ ?v_14 (+ ?v_136 (+ ?v_129 (+ ?v_19 (+ ?v_49 (+ ?v_32 (+ ?v_60 (+ ?v_72 (+ ?v_2 (+ ?v_34 (+ ?v_39 (+ ?v_108 (+ ?v_102 (+ ?v_18 (+ ?v_62 (+ ?v_137 (+ ?v_21 (+ ?v_28 (+ ?v_11 (+ ?v_36 (+ ?v_66 (+ ?v_138 (+ ?v_40 (+ ?v_56 (+ (* 2 x44) ?v_139))))))))))))))))))))))))) 0) (<= (+ ?v_105 (+ ?v_97 (+ ?v_99 (+ ?v_6 (+ ?v_16 (+ ?v_90 (+ ?v_96 (+ ?v_24 (+ (* 3 x18) (+ ?v_110 (+ ?v_74 (+ ?v_108 (+ ?v_102 (+ ?v_62 (+ ?v_38 (+ ?v_3 (+ ?v_21 (+ ?v_68 (+ ?v_27 (+ ?v_52 (+ ?v_28 (+ ?v_70 (+ ?v_36 (+ ?v_82 (+ ?v_45 (+ ?v_54 ?v_148)))))))))))))))))))))))))) 0) (<= (+ ?v_129 (+ ?v_107 (+ ?v_71 (+ ?v_32 (+ ?v_51 (+ ?v_64 (+ ?v_73 (+ ?v_101 (+ ?v_49 (+ ?v_96 (+ ?v_33 (+ ?v_61 (+ ?v_37 (+ ?v_122 (+ ?v_112 (+ ?v_53 (+ ?v_69 (+ ?v_102 (+ ?v_3 (+ ?v_21 (+ ?v_68 (+ ?v_27 (+ ?v_138 (+ ?v_70 (+ ?v_82 (+ ?v_93 ?v_94)))))))))))))))))))))))))) (- 1)) (<= (+ ?v_140 (+ ?v_129 (+ ?v_49 (+ ?v_6 (+ ?v_32 (+ ?v_96 (+ ?v_72 (+ ?v_7 (+ ?v_15 (+ ?v_61 (+ ?v_18 (+ ?v_78 (+ ?v_63 (+ ?v_75 (+ ?v_27 (+ ?v_28 (+ ?v_36 (+ ?v_84 (+ ?v_150 (+ ?v_37 (+ ?v_3 (+ ?v_68 (+ ?v_30 (+ ?v_82 (+ ?v_92 (+ ?v_83 (+ ?v_93 (+ ?v_55 (+ ?v_125 ?v_151))))))))))))))))))))))))))))) 0) (<= (+ (* (- 3) x18) (+ ?v_99 (+ ?v_71 (+ (* (- 3) x34) (+ ?v_5 (+ ?v_140 (+ ?v_90 (+ ?v_97 (+ ?v_17 (+ ?v_6 (+ ?v_33 (+ ?v_155 (+ ?v_8 (+ ?v_1 (+ ?v_66 (+ ?v_53 (+ ?v_3 (+ ?v_86 (+ ?v_68 (+ ?v_27 (+ ?v_28 (+ ?v_82 (+ ?v_83 (+ ?v_116 (+ ?v_93 (+ ?v_42 (+ ?v_43 (+ ?v_125 ?v_141)))))))))))))))))))))))))))) 1) (<= (+ ?v_95 (+ ?v_5 (+ ?v_48 (+ ?v_32 (+ ?v_15 (+ ?v_106 (+ ?v_8 (+ ?v_35 (+ ?v_142 (+ ?v_119 (+ ?v_111 (+ ?v_10 (+ ?v_62 (+ ?v_52 (+ ?v_29 (+ ?v_81 (+ ?v_112 (+ ?v_115 (+ ?v_53 (+ ?v_113 (+ ?v_9 (+ ?v_3 (+ ?v_82 (+ ?v_83 (+ ?v_116 (+ ?v_93 (+ ?v_55 ?v_88))))))))))))))))))))))))))) (- 1)) (<= (+ ?v_99 (+ ?v_95 (+ (* 2 x12) (+ ?v_109 (+ ?v_136 (+ ?v_129 (+ ?v_98 (+ ?v_124 (+ ?v_15 (+ ?v_61 (+ ?v_72 (+ ?v_110 (+ ?v_119 (+ ?v_77 (+ ?v_100 (+ ?v_112 (+ ?v_9 (+ ?v_7 (+ ?v_102 (+ ?v_39 (+ ?v_3 (+ ?v_75 (+ ?v_52 (+ ?v_28 (+ ?v_54 (+ ?v_41 (+ ?v_42 (+ ?v_43 (* 2 x9))))))))))))))))))))))))))))) 0) (<= (+ ?v_48 (+ ?v_99 (+ ?v_16 (+ ?v_49 (+ ?v_124 (+ ?v_32 (+ ?v_24 (+ ?v_134 (+ ?v_105 (+ ?v_91 (+ ?v_61 (+ ?v_142 (+ ?v_98 (+ ?v_17 (+ ?v_135 (+ ?v_26 (+ ?v_78 (+ ?v_63 (+ ?v_52 (+ ?v_65 (+ ?v_84 (+ ?v_125 (+ (* 4 x30) (+ ?v_53 (+ ?v_70 (+ ?v_56 ?v_141)))))))))))))))))))))))))) 1) (<= (+ ?v_14 (+ ?v_49 (+ ?v_124 (+ ?v_15 (+ ?v_63 (+ ?v_60 (+ ?v_72 (+ ?v_143 (+ ?v_111 (+ ?v_100 (+ ?v_7 (+ ?v_102 (+ ?v_10 (+ ?v_75 (+ ?v_66 (+ ?v_68 (+ ?v_27 (+ ?v_52 (+ ?v_29 (+ ?v_144 (+ ?v_12 (+ ?v_82 (+ ?v_93 (+ ?v_31 (+ ?v_116 (+ ?v_41 (+ ?v_42 (+ ?v_57 ?v_141)))))))))))))))))))))))))))) 0) (<= (+ ?v_99 (+ ?v_95 (+ ?v_32 (+ ?v_129 (+ ?v_97 (+ ?v_69 (+ ?v_9 (+ ?v_49 (+ ?v_124 (+ ?v_96 (+ ?v_106 (+ ?v_145 (+ ?v_27 (+ ?v_52 (+ ?v_84 (+ ?v_37 (+ ?v_76 (+ ?v_80 (+ ?v_81 (+ ?v_112 (+ ?v_74 (+ ?v_70 (+ ?v_82 (+ ?v_83 (+ ?v_65 (+ ?v_93 (+ ?v_43 (+ ?v_31 ?v_88)))))))))))))))))))))))))))) (- 1)) (<= (+ ?v_95 (+ ?v_49 (+ ?v_146 (+ (* 2 x14) (+ ?v_24 (+ ?v_15 (+ ?v_89 (+ ?v_143 (+ ?v_98 (+ ?v_111 (+ ?v_64 (+ ?v_20 (+ ?v_101 (+ ?v_9 (+ ?v_7 (+ ?v_10 (+ ?v_62 (+ ?v_1 (+ ?v_28 (+ ?v_11 (+ ?v_66 (+ ?v_138 (+ ?v_130 (+ ?v_154 (+ ?v_82 (+ ?v_92 (+ ?v_83 (+ ?v_55 (+ ?v_44 ?v_104))))))))))))))))))))))))))))) 1) (<= (+ ?v_14 (+ ?v_95 (+ ?v_136 (+ ?v_97 (+ ?v_15 (+ ?v_18 (+ ?v_107 (+ ?v_75 (+ ?v_147 (+ ?v_0 (+ ?v_50 (+ ?v_90 (+ ?v_72 (+ ?v_91 (+ ?v_77 (+ ?v_28 (+ ?v_36 (+ ?v_20 (+ ?v_74 (+ ?v_9 (+ ?v_46 (+ ?v_82 (+ ?v_127 (+ ?v_120 (+ ?v_22 (+ ?v_81 (+ (* 2 x32) (+ ?v_31 (+ ?v_41 ?v_148))))))))))))))))))))))))))))) (- 1)) (<= (+ ?v_105 (+ ?v_129 (+ ?v_6 (+ ?v_89 (+ ?v_16 (+ ?v_152 (+ ?v_142 (+ ?v_18 (+ ?v_149 (+ ?v_107 (+ ?v_77 (+ ?v_111 (+ ?v_51 (+ ?v_100 (+ ?v_78 (+ ?v_75 (+ ?v_52 (+ ?v_22 (+ ?v_39 (+ ?v_113 (+ ?v_12 (+ ?v_84 (+ ?v_31 (+ ?v_54 (+ ?v_42 (+ ?v_44 (+ ?v_46 (+ ?v_59 ?v_150)))))))))))))))))))))))))))) (- 1)) (<= (+ ?v_128 (+ ?v_95 (+ ?v_5 (+ ?v_48 (+ ?v_32 (+ ?v_24 (+ ?v_61 (+ ?v_106 (+ ?v_91 (+ ?v_119 (+ ?v_26 (+ ?v_73 (+ ?v_0 (+ ?v_9 (+ ?v_34 (+ ?v_102 (+ ?v_18 (+ ?v_1 (+ (* 2 x19) (+ ?v_3 (+ ?v_86 (+ ?v_79 (+ ?v_52 (+ ?v_70 (+ ?v_93 ?v_59))))))))))))))))))))))))) 0) (<= (+ ?v_99 (+ ?v_109 (+ ?v_49 (+ ?v_124 (+ ?v_134 (+ ?v_89 (+ ?v_145 (+ ?v_18 (+ ?v_135 (+ ?v_25 (+ ?v_9 (+ ?v_78 (+ ?v_75 (+ ?v_29 (+ ?v_37 (+ ?v_76 (+ (* 2 x27) (+ ?v_68 (+ ?v_92 (+ ?v_54 (+ ?v_74 (+ ?v_88 (+ ?v_23 (+ ?v_150 ?v_3)))))))))))))))))))))))) 0) (<= (+ ?v_48 (+ ?v_71 (+ ?v_49 (+ ?v_32 (+ ?v_24 (+ ?v_89 (+ ?v_91 (+ ?v_61 (+ (* (- 2) x22) (+ ?v_7 (+ ?v_142 (+ ?v_17 (+ ?v_107 (+ ?v_150 (+ ?v_66 (+ ?v_3 (+ ?v_75 (+ ?v_27 (+ ?v_65 (+ ?v_84 (+ ?v_22 (+ ?v_144 (+ ?v_80 (+ ?v_70 (+ ?v_93 (+ ?v_31 (+ ?v_42 (+ ?v_44 ?v_151)))))))))))))))))))))))))))) 0) (<= (+ ?v_99 (+ ?v_95 (+ ?v_129 (+ ?v_49 (+ ?v_15 (+ ?v_50 (+ ?v_90 (+ ?v_152 (+ (* 2 x18) (+ (* (- 3) x21) (+ ?v_153 (+ ?v_69 (+ ?v_78 (+ ?v_21 (+ ?v_68 (+ ?v_28 (+ ?v_65 (+ ?v_84 (+ ?v_45 (+ ?v_88 (+ ?v_59 (+ ?v_150 (+ ?v_80 (+ ?v_131 (+ ?v_58 (+ ?v_154 ?v_157)))))))))))))))))))))))))) 0) (<= (+ ?v_99 (+ ?v_95 (+ ?v_48 (+ ?v_124 (+ ?v_32 (+ ?v_96 (+ ?v_15 (+ ?v_26 (+ ?v_72 (+ ?v_10 (+ ?v_78 (+ ?v_38 (+ ?v_1 (+ ?v_75 (+ ?v_68 (+ ?v_52 (+ ?v_29 (+ ?v_83 (+ ?v_81 (+ ?v_116 (+ ?v_93 (+ ?v_55 (+ (* (- 2) x5) (+ ?v_39 (+ ?v_150 (+ ?v_127 ?v_125)))))))))))))))))))))))))) 0) (<= (+ ?v_48 (+ ?v_128 (+ ?v_71 (+ ?v_90 (+ ?v_109 (+ (* 2 x10) (+ ?v_155 (+ ?v_97 (+ ?v_17 (+ ?v_89 (+ ?v_18 (+ ?v_25 (+ ?v_78 (+ ?v_21 (+ ?v_68 (+ ?v_11 (+ ?v_83 (+ ?v_45 (+ ?v_46 (+ ?v_150 (+ ?v_127 (+ ?v_86 (+ ?v_144 (+ ?v_80 (+ ?v_131 (+ ?v_56 ?v_57)))))))))))))))))))))))))) 0) (<= (+ ?v_128 (+ ?v_5 (+ ?v_140 (+ ?v_32 (+ ?v_136 (+ ?v_117 (+ ?v_107 (+ ?v_96 (+ ?v_15 (+ ?v_35 (+ ?v_61 (+ ?v_72 (+ ?v_10 (+ ?v_62 (+ ?v_1 (+ ?v_2 (+ ?v_64 (+ ?v_11 (+ ?v_112 (+ ?v_26 (+ ?v_53 (+ ?v_0 (+ ?v_74 (+ ?v_70 (+ ?v_83 (+ ?v_84 (+ ?v_43 (+ ?v_23 (+ ?v_150 (+ ?v_121 (+ ?v_42 ?v_125))))))))))))))))))))))))))))))) 0) (<= (+ ?v_71 (+ ?v_140 (+ ?v_32 (+ ?v_136 (+ ?v_135 (+ ?v_25 (+ ?v_85 (+ ?v_112 (+ ?v_26 (+ ?v_53 (+ ?v_101 (+ ?v_9 (+ ?v_7 (+ ?v_35 (+ ?v_61 (+ ?v_78 (+ ?v_1 (+ ?v_29 (+ ?v_83 (+ ?v_93 (+ ?v_74 (+ ?v_114 (+ ?v_37 (+ ?v_76 (+ ?v_3 (+ ?v_22 (+ ?v_81 (+ ?v_116 ?v_57)))))))))))))))))))))))))))) 0) (<= (+ ?v_71 (+ ?v_5 (+ ?v_96 (+ ?v_33 (+ ?v_155 (+ ?v_35 (+ ?v_97 (+ ?v_156 (+ ?v_98 (+ (* (- 2) x29) (+ ?v_10 (+ ?v_62 (+ ?v_1 (+ ?v_27 (+ ?v_29 (+ ?v_66 (+ ?v_138 (+ ?v_39 (+ ?v_112 (+ ?v_54 (+ ?v_41 (+ ?v_43 (+ ?v_88 (+ ?v_59 (+ ?v_127 ?v_157))))))))))))))))))))))))) 0) (<= (+ (* (- 2) x35) (+ ?v_5 (+ ?v_6 (+ ?v_134 (+ ?v_129 (+ ?v_97 (+ ?v_89 (+ ?v_62 (+ ?v_145 (+ ?v_122 (+ ?v_119 (+ ?v_111 (+ ?v_75 (+ ?v_2 (+ ?v_27 (+ ?v_52 (+ ?v_29 (+ ?v_158 (+ ?v_26 (+ ?v_92 (+ ?v_83 (+ ?v_93 (+ ?v_45 (+ ?v_150 (+ ?v_127 (+ ?v_121 (+ ?v_116 ?v_41))))))))))))))))))))))))))) (- 1)) (<= (+ ?v_99 (+ ?v_49 (+ ?v_50 (+ ?v_118 (+ ?v_134 (+ (* (- 2) x19) (+ ?v_77 (+ ?v_51 (+ ?v_102 (+ ?v_10 (+ ?v_78 (+ ?v_52 (+ ?v_29 (+ ?v_120 (+ ?v_93 (+ ?v_55 (+ ?v_22 (+ ?v_12 (+ (* 2 x38) (+ ?v_31 (+ ?v_57 (+ ?v_44 (+ ?v_88 (+ (* (- 2) x9) (+ ?v_127 (+ ?v_30 ?v_121)))))))))))))))))))))))))) 0) (<= (+ ?v_128 (+ ?v_95 (+ ?v_140 (+ ?v_136 (+ ?v_9 (+ ?v_49 (+ ?v_6 (+ ?v_32 (+ ?v_33 (+ ?v_35 (+ ?v_156 (+ ?v_111 (+ ?v_100 (+ ?v_112 (+ ?v_102 (+ ?v_62 (+ ?v_63 (+ ?v_75 (+ ?v_27 (+ ?v_83 (+ ?v_65 (+ ?v_84 (+ ?v_37 (+ ?v_22 (+ ?v_138 (+ ?v_92 (+ ?v_30 (+ ?v_115 ?v_88)))))))))))))))))))))))))))) (- 1)))))))))
(check-sat)
(exit)
